instances/shortest_path/discrete/shortest_path_3_2.lp
\ Model nohadani_3_2
\ LP format - for model browsing. Use MPS format to capture full model detail.
\ Signature: 0xf9a0f44b955a6a9b
Minimize
  94.33981132056604 y[0,1] + 53.15072906367325 y[0,2]
   + 94.33981132056604 y[1,0] + 57.62811813689564 y[1,2]
   + 53.15072906367325 y[2,0] + 57.62811813689564 y[2,1] + x[0,1] + x[0,2]
   + x[1,0] + x[1,2] + x[2,0] + x[2,1] + 9.433981132056605 r[0,1]
   + 5.315072906367325 r[0,2] + 9.433981132056605 r[1,0]
   + 5.762811813689564 r[1,2] + 5.315072906367325 r[2,0]
   + 5.762811813689564 r[2,1]
Subject To
 flow_cons_inner_nodes[2]: y[0,2] + y[1,2] - y[2,0] - y[2,1] = 0
 flow_cons_source: y[0,1] + y[0,2] - y[1,0] - y[2,0] = 1
 flow_cons_target: y[0,1] - y[1,0] - y[1,2] + y[2,1] = 1
 primal_lower: 9.197483084529523 x[0,1] + 11.02602408377714 x[0,2]
   + 8.364977325673248 x[1,0] + 11.54475045986693 x[1,2]
   + 10.63216427698009 x[2,0] + 8.459199637332265 x[2,1] + 53 u[0,1]
   + 21 u[0,2] + 23 u[1,0] + 84 u[1,2] + 85 u[2,0] + 59 u[2,1] <= 85
 mccormick1[0,1]: - u[0,1] + r[0,1] <= 0
 mccormick1[0,2]: - u[0,2] + r[0,2] <= 0
 mccormick1[1,0]: - u[1,0] + r[1,0] <= 0
 mccormick1[1,2]: - u[1,2] + r[1,2] <= 0
 mccormick1[2,0]: - u[2,0] + r[2,0] <= 0
 mccormick1[2,1]: - u[2,1] + r[2,1] <= 0
 mccormick2[0,1]: - y[0,1] + r[0,1] <= 0
 mccormick2[0,2]: - y[0,2] + r[0,2] <= 0
 mccormick2[1,0]: - y[1,0] + r[1,0] <= 0
 mccormick2[1,2]: - y[1,2] + r[1,2] <= 0
 mccormick2[2,0]: - y[2,0] + r[2,0] <= 0
 mccormick2[2,1]: - y[2,1] + r[2,1] <= 0
 mccormick3[0,1]: - y[0,1] - u[0,1] + r[0,1] >= -1
 mccormick3[0,2]: - y[0,2] - u[0,2] + r[0,2] >= -1
 mccormick3[1,0]: - y[1,0] - u[1,0] + r[1,0] >= -1
 mccormick3[1,2]: - y[1,2] - u[1,2] + r[1,2] >= -1
 mccormick3[2,0]: - y[2,0] - u[2,0] + r[2,0] >= -1
 mccormick3[2,1]: - y[2,1] - u[2,1] + r[2,1] >= -1
Bounds
Binaries
 y[0,1] y[0,2] y[1,0] y[1,2] y[2,0] y[2,1] x[0,1] x[0,2] x[1,0] x[1,2]
 x[2,0] x[2,1] u[0,1] u[0,2] u[1,0] u[1,2] u[2,0] u[2,1] r[0,1] r[0,2]
 r[1,0] r[1,2] r[2,0] r[2,1]
End
