instances/shortest_path/discrete/shortest_path_3_2.kp
76940
85

[9.197483084529523 11.026024083777145 8.364977325673248 11.54475045986693 10.632164276980092 8.459199637332265]

[53 21 23 84 85 59]
